NAME: pr264
COMMENT: Local search tour for pr264 (55764.91553131346)
TYPE: TOUR
DIMENSION: 264
TOUR_SECTION: 1 40 41 42 43 44 45 46 47 48 49 57 58 122 126 127 55 56 50 51 52 53 54 128 125 124 123 59 148 162 161 160 159 158 149 155 156 157 227 230 152 153 154 150 151 231 232 233 234 229 228 235 236 226 264 263 262 261 260 200 201 199 133 134 196 197 198 202 203 259 257 258 204 205 193 194 195 135 136 192 191 190 207 206 256 255 254 253 209 208 189 188 187 137 138 186 185 184 211 210 252 251 250 249 213 212 183 182 181 139 140 180 179 178 215 214 248 247 246 245 217 216 177 176 175 141 142 172 173 174 218 219 243 244 241 242 220 221 169 170 171 143 144 166 167 168 222 223 239 240 237 238 224 225 163 164 165 145 147 146 130 131 132 88 85 84 2 3 4 5 6 82 83 86 87 89 90 91 80 81 7 8 9 10 11 12 78 79 92 93 94 95 96 97 76 77 13 14 15 16 17 18 74 75 98 99 100 101 102 103 72 73 19 20 21 22 23 24 70 71 104 105 106 107 108 109 68 69 25 26 27 28 29 30 66 67 110 111 112 113 114 115 64 65 31 32 33 34 35 36 62 63 116 117 118 129 119 120 121 60 61 37 38 39 -1
EOF